# Objective value = 21
WA1n 0
WA1p 0
WA2n 1
WA2p 0
WB1n 1
WB1p 0
WC1n 1
WC1p 0
WD1n 0
WD1p 1
WE1n 0
WE1p 1
WF1n 0
WF1p 1
WG1n 4
WG1p 0
WG2n 1
WG2p 0
WH1n 5
WH1p 0
WT1n 1
WT1p 0
WT2n 1
WT2p 0
5 7
a 0
b 0
c 0
d 0
e 1
f 1
g 1
h 0
i 0
j 0
k 0
l 0
